networks/zoo_58_812/zoo_58_812.txt
Number of groups: 36
Flow 17: {1 5} {5 18} {18 47} 
Flow 25: {14 15} {15 26} {26 55} 
Flow 26: {13 27} {27 56} 
Flow 29: {2 19} {19 12} {12 1} {1 30} 
Flow 43: {19 18} {18 16} {16 45} 
Flow 68: {3 13} {13 42} 
Flow 75: {3 14} {14 20} 
Flow 91: {4 12} {12 8} {8 37} 
Flow 128: {5 1} {1 12} {12 17} {17 46} 
Flow 130: {18 19} {19 48} 
Flow 148: {6 18} {18 9} {9 38} 
Flow 168: {6 13} {13 14} {14 29} {29 58} 
Flow 172: {7 19} {19 2} {2 4} {4 33} 
Flow 190: {7 18} {18 13} {13 24} {24 23} {23 52} 
Flow 203: {8 18} {18 7} {7 36} 
Flow 235: {9 18} {18 8} {8 12} {12 41} 
Flow 238: {9 13} {13 11} {11 15} {15 44} 
Flow 278: {10 21} {21 15} {15 27} 
Flow 398: {11 13} {13 6} 
Flow 434: {16 17} {17 12} {12 14} {14 43} 
Flow 454: {17 16} {16 18} {18 6} {6 35} 
Flow 534: {12 4} {4 2} {2 31} 
Flow 535: {20 14} {14 3} 
Flow 543: {20 15} {15 11} {11 40} 
Flow 569: {21 10} {10 14} {14 13} {13 9} 
Flow 611: {22 23} {23 24} {24 53} 
Flow 626: {23 22} {22 15} {15 14} {14 10} {10 39} 
Flow 671: {24 13} {13 28} {28 57} 
Flow 693: {25 26} {26 15} {15 21} {21 50} 
Flow 705: {26 25} {25 13} {13 18} {18 5} {5 34} 
Flow 727: {15 29} {29 28} 
Flow 731: {27 13} {13 3} {3 32} 
Flow 748: {27 15} {15 20} {20 49} 
Flow 778: {28 29} {29 15} {15 22} {22 51} 
Flow 781: {28 13} {13 25} {25 54} 
Flow 791: {29 14} {14 12} {12 19} {19 7} 
Time taken running everything: 30 seconds
