networks/zoo_58_812/zoo_58_812.sol
<?xml version = "1.0" encoding="UTF-8" standalone="yes"?>
<CPLEXSolution version="1.2">
 <header
   problemName="networks/zoo_58_812/zoo_58_812.lp"
   solutionName="incumbent"
   solutionIndex="-1"
   objectiveValue="36"
   solutionTypeValue="3"
   solutionTypeString="primal"
   solutionStatusValue="101"
   solutionStatusString="integer optimal solution"
   solutionMethodString="mip"
   primalFeasible="1"
   dualFeasible="1"
   MIPNodes="1178"
   MIPIterations="75561"
   writeLevel="3"/>
 <quality
   epInt="1.0000000000000001e-05"
   epRHS="9.9999999999999995e-07"
   maxIntInfeas="0"
   maxPrimalInfeas="1.7763568394002505e-15"
   maxX="4"
   maxSlack="10"/>
 <variables>
  <variable name="Y(17,18)" index="945" value="1"/>
  <variable name="Y(25,26)" index="1417" value="1"/>
  <variable name="Y(26,27)" index="1476" value="1"/>
  <variable name="Y(29,1)" index="1624" value="1"/>
  <variable name="Y(43,16)" index="2451" value="1"/>
  <variable name="Y(68,13)" index="3898" value="1"/>
  <variable name="Y(75,14)" index="4305" value="1"/>
  <variable name="Y(91,8)" index="5227" value="1"/>
  <variable name="Y(128,17)" index="7382" value="1"/>
  <variable name="Y(130,19)" index="7500" value="1"/>
  <variable name="Y(148,9)" index="8534" value="1"/>
  <variable name="Y(168,29)" index="9714" value="1"/>
  <variable name="Y(172,4)" index="9921" value="1"/>
  <variable name="Y(190,23)" index="10984" value="1"/>
  <variable name="Y(203,7)" index="11722" value="1"/>
  <variable name="Y(235,12)" index="13583" value="1"/>
  <variable name="Y(238,15)" index="13760" value="1"/>
  <variable name="Y(278,15)" index="16080" value="1"/>
  <variable name="Y(398,13)" index="23038" value="1"/>
  <variable name="Y(434,14)" index="25127" value="1"/>
  <variable name="Y(454,6)" index="26279" value="1"/>
  <variable name="Y(534,2)" index="30915" value="1"/>
  <variable name="Y(535,14)" index="30985" value="1"/>
  <variable name="Y(543,11)" index="31446" value="1"/>
  <variable name="Y(569,13)" index="32956" value="1"/>
  <variable name="Y(611,24)" index="35403" value="1"/>
  <variable name="Y(626,10)" index="36259" value="1"/>
  <variable name="Y(671,28)" index="38887" value="1"/>
  <variable name="Y(693,21)" index="40156" value="1"/>
  <variable name="Y(705,5)" index="40836" value="1"/>
  <variable name="Y(727,29)" index="42136" value="1"/>
  <variable name="Y(731,3)" index="42342" value="1"/>
  <variable name="Y(748,20)" index="43345" value="1"/>
  <variable name="Y(778,22)" index="45087" value="1"/>
  <variable name="Y(781,25)" index="45264" value="1"/>
  <variable name="Y(791,19)" index="45838" value="1"/>
  <variable name="X(1,5,17)" index="47112" value="1"/>
  <variable name="X(1,12,128)" index="48035" value="1"/>
  <variable name="X(1,30,29)" index="48748" value="1"/>
  <variable name="X(2,4,172)" index="49703" value="1"/>
  <variable name="X(2,19,29)" index="50372" value="1"/>
  <variable name="X(2,31,534)" index="51689" value="1"/>
  <variable name="X(3,13,68)" index="52035" value="1"/>
  <variable name="X(3,14,75)" index="52854" value="1"/>
  <variable name="X(3,32,731)" index="54322" value="1"/>
  <variable name="X(4,2,534)" index="54937" value="1"/>
  <variable name="X(4,12,91)" index="55306" value="1"/>
  <variable name="X(4,33,172)" index="56199" value="1"/>
  <variable name="X(5,1,128)" index="56967" value="1"/>
  <variable name="X(5,18,17)" index="57668" value="1"/>
  <variable name="X(5,34,705)" index="59168" value="1"/>
  <variable name="X(6,13,168)" index="59443" value="1"/>
  <variable name="X(6,18,148)" index="60235" value="1"/>
  <variable name="X(6,35,454)" index="61353" value="1"/>
  <variable name="X(7,18,190)" index="61901" value="1"/>
  <variable name="X(7,19,172)" index="62695" value="1"/>
  <variable name="X(7,36,203)" index="63538" value="1"/>
  <variable name="X(8,12,235)" index="64382" value="1"/>
  <variable name="X(8,18,203)" index="65162" value="1"/>
  <variable name="X(8,37,91)" index="65862" value="1"/>
  <variable name="X(9,13,238)" index="66821" value="1"/>
  <variable name="X(9,18,235)" index="67630" value="1"/>
  <variable name="X(9,38,148)" index="68355" value="1"/>
  <variable name="X(10,14,569)" index="69588" value="1"/>
  <variable name="X(10,21,278)" index="70109" value="1"/>
  <variable name="X(10,39,626)" index="71269" value="1"/>
  <variable name="X(11,13,398)" index="71853" value="1"/>
  <variable name="X(11,15,238)" index="72505" value="1"/>
  <variable name="X(11,40,543)" index="73622" value="1"/>
  <variable name="X(12,1,29)" index="73920" value="1"/>
  <variable name="X(12,4,534)" index="75237" value="1"/>
  <variable name="X(12,8,91)" index="75606" value="1"/>
  <variable name="X(12,14,434)" index="76761" value="1"/>
  <variable name="X(12,17,128)" index="77267" value="1"/>
  <variable name="X(12,19,791)" index="78742" value="1"/>
  <variable name="X(12,41,235)" index="78998" value="1"/>
  <variable name="X(13,3,731)" index="80306" value="1"/>
  <variable name="X(13,6,398)" index="80785" value="1"/>
  <variable name="X(13,9,569)" index="81768" value="1"/>
  <variable name="X(13,11,238)" index="82249" value="1"/>
  <variable name="X(13,14,168)" index="82991" value="1"/>
  <variable name="X(13,18,705)" index="84340" value="1"/>
  <variable name="X(13,24,190)" index="84637" value="1"/>
  <variable name="X(13,25,781)" index="86040" value="1"/>
  <variable name="X(13,27,26)" index="86097" value="1"/>
  <variable name="X(13,28,671)" index="87554" value="1"/>
  <variable name="X(13,42,68)" index="87763" value="1"/>
  <variable name="X(14,3,535)" index="89042" value="1"/>
  <variable name="X(14,10,626)" index="89945" value="1"/>
  <variable name="X(14,12,791)" index="90922" value="1"/>
  <variable name="X(14,13,569)" index="91512" value="1"/>
  <variable name="X(14,15,25)" index="91780" value="1"/>
  <variable name="X(14,20,75)" index="92642" value="1"/>
  <variable name="X(14,29,168)" index="93547" value="1"/>
  <variable name="X(14,43,434)" index="94625" value="1"/>
  <variable name="X(15,11,543)" index="95546" value="1"/>
  <variable name="X(15,14,626)" index="96441" value="1"/>
  <variable name="X(15,20,748)" index="97375" value="1"/>
  <variable name="X(15,21,693)" index="98132" value="1"/>
  <variable name="X(15,22,778)" index="99029" value="1"/>
  <variable name="X(15,26,25)" index="99088" value="1"/>
  <variable name="X(15,27,278)" index="100153" value="1"/>
  <variable name="X(15,29,727)" index="101414" value="1"/>
  <variable name="X(15,44,238)" index="101737" value="1"/>
  <variable name="X(16,17,434)" index="102745" value="1"/>
  <variable name="X(16,18,454)" index="103577" value="1"/>
  <variable name="X(16,45,43)" index="103978" value="1"/>
  <variable name="X(17,12,434)" index="105181" value="1"/>
  <variable name="X(17,16,454)" index="106013" value="1"/>
  <variable name="X(17,46,128)" index="106499" value="1"/>
  <variable name="X(18,5,705)" index="107888" value="1"/>
  <variable name="X(18,6,454)" index="108449" value="1"/>
  <variable name="X(18,7,203)" index="109010" value="1"/>
  <variable name="X(18,8,235)" index="109854" value="1"/>
  <variable name="X(18,9,148)" index="110579" value="1"/>
  <variable name="X(18,13,190)" index="111433" value="1"/>
  <variable name="X(18,16,43)" index="112098" value="1"/>
  <variable name="X(18,19,130)" index="112997" value="1"/>
  <variable name="X(18,47,17)" index="113696" value="1"/>
  <variable name="X(19,2,172)" index="114663" value="1"/>
  <variable name="X(19,7,791)" index="116094" value="1"/>
  <variable name="X(19,12,29)" index="116144" value="1"/>
  <variable name="X(19,18,43)" index="116970" value="1"/>
  <variable name="X(19,48,130)" index="117869" value="1"/>
  <variable name="X(20,14,535)" index="119086" value="1"/>
  <variable name="X(20,15,543)" index="119906" value="1"/>
  <variable name="X(20,49,748)" index="120923" value="1"/>
  <variable name="X(21,10,569)" index="121556" value="1"/>
  <variable name="X(21,15,278)" index="122077" value="1"/>
  <variable name="X(21,50,693)" index="123304" value="1"/>
  <variable name="X(22,15,626)" index="124049" value="1"/>
  <variable name="X(22,23,611)" index="124846" value="1"/>
  <variable name="X(22,51,778)" index="125825" value="1"/>
  <variable name="X(23,22,626)" index="126485" value="1"/>
  <variable name="X(23,24,611)" index="127282" value="1"/>
  <variable name="X(23,52,190)" index="127673" value="1"/>
  <variable name="X(24,13,671)" index="128966" value="1"/>
  <variable name="X(24,23,190)" index="129297" value="1"/>
  <variable name="X(24,53,611)" index="130530" value="1"/>
  <variable name="X(25,13,705)" index="131436" value="1"/>
  <variable name="X(25,26,693)" index="132236" value="1"/>
  <variable name="X(25,54,781)" index="133136" value="1"/>
  <variable name="X(26,15,693)" index="133860" value="1"/>
  <variable name="X(26,25,705)" index="134684" value="1"/>
  <variable name="X(26,55,25)" index="134816" value="1"/>
  <variable name="X(27,13,731)" index="136334" value="1"/>
  <variable name="X(27,15,748)" index="137163" value="1"/>
  <variable name="X(27,56,26)" index="137253" value="1"/>
  <variable name="X(28,13,781)" index="138820" value="1"/>
  <variable name="X(28,29,778)" index="139629" value="1"/>
  <variable name="X(28,57,671)" index="140334" value="1"/>
  <variable name="X(29,14,791)" index="141266" value="1"/>
  <variable name="X(29,15,778)" index="142065" value="1"/>
  <variable name="X(29,28,727)" index="142826" value="1"/>
  <variable name="X(29,58,168)" index="143079" value="1"/>
  <variable name="C(17,5)" index="143782" value="1"/>
  <variable name="C(17,18)" index="143783" value="2"/>
  <variable name="C(25,15)" index="143820" value="1"/>
  <variable name="C(25,26)" index="143821" value="2"/>
  <variable name="C(26,27)" index="143826" value="1"/>
  <variable name="C(29,19)" index="143837" value="1"/>
  <variable name="C(29,12)" index="143838" value="2"/>
  <variable name="C(29,1)" index="143839" value="3"/>
  <variable name="C(43,18)" index="143894" value="1"/>
  <variable name="C(43,16)" index="143895" value="2"/>
  <variable name="C(68,13)" index="144000" value="1"/>
  <variable name="C(75,14)" index="144022" value="1"/>
  <variable name="C(91,12)" index="144078" value="1"/>
  <variable name="C(91,8)" index="144079" value="2"/>
  <variable name="C(128,1)" index="144224" value="1"/>
  <variable name="C(128,12)" index="144225" value="2"/>
  <variable name="C(128,17)" index="144226" value="3"/>
  <variable name="C(130,19)" index="144231" value="1"/>
  <variable name="C(148,18)" index="144306" value="1"/>
  <variable name="C(148,9)" index="144307" value="2"/>
  <variable name="C(168,13)" index="144375" value="1"/>
  <variable name="C(168,14)" index="144376" value="1.9999999999999982"/>
  <variable name="C(168,29)" index="144377" value="2.9999999999999982"/>
  <variable name="C(172,19)" index="144390" value="1"/>
  <variable name="C(172,2)" index="144391" value="2"/>
  <variable name="C(172,4)" index="144392" value="3"/>
  <variable name="C(190,18)" index="144458" value="1"/>
  <variable name="C(190,13)" index="144459" value="2"/>
  <variable name="C(190,24)" index="144460" value="3"/>
  <variable name="C(190,23)" index="144461" value="4"/>
  <variable name="C(203,18)" index="144509" value="1"/>
  <variable name="C(203,7)" index="144510" value="2"/>
  <variable name="C(235,18)" index="144625" value="1"/>
  <variable name="C(235,8)" index="144626" value="2"/>
  <variable name="C(235,12)" index="144627" value="3"/>
  <variable name="C(238,13)" index="144634" value="1"/>
  <variable name="C(238,11)" index="144635" value="1.9999999999999998"/>
  <variable name="C(238,15)" index="144636" value="3"/>
  <variable name="C(278,21)" index="144784" value="1"/>
  <variable name="C(278,15)" index="144785" value="2"/>
  <variable name="C(398,13)" index="145167" value="1"/>
  <variable name="C(434,17)" index="145284" value="1"/>
  <variable name="C(434,12)" index="145285" value="2"/>
  <variable name="C(434,14)" index="145286" value="3"/>
  <variable name="C(454,16)" index="145366" value="1"/>
  <variable name="C(454,18)" index="145367" value="2"/>
  <variable name="C(454,6)" index="145368" value="3"/>
  <variable name="C(534,4)" index="145651" value="1"/>
  <variable name="C(534,2)" index="145652" value="2"/>
  <variable name="C(535,14)" index="145654" value="1"/>
  <variable name="C(543,15)" index="145686" value="1"/>
  <variable name="C(543,11)" index="145687" value="2"/>
  <variable name="C(569,10)" index="145789" value="1"/>
  <variable name="C(569,14)" index="145790" value="2"/>
  <variable name="C(569,13)" index="145791" value="3"/>
  <variable name="C(611,23)" index="145961" value="1"/>
  <variable name="C(611,24)" index="145962" value="2"/>
  <variable name="C(626,22)" index="146026" value="1"/>
  <variable name="C(626,15)" index="146027" value="2"/>
  <variable name="C(626,14)" index="146028" value="3"/>
  <variable name="C(626,10)" index="146029" value="4"/>
  <variable name="C(671,13)" index="146198" value="1"/>
  <variable name="C(671,28)" index="146199" value="2"/>
  <variable name="C(693,26)" index="146280" value="1"/>
  <variable name="C(693,15)" index="146281" value="2"/>
  <variable name="C(693,21)" index="146282" value="3"/>
  <variable name="C(705,25)" index="146327" value="1"/>
  <variable name="C(705,13)" index="146328" value="2"/>
  <variable name="C(705,18)" index="146329" value="3"/>
  <variable name="C(705,5)" index="146330" value="4"/>
  <variable name="C(727,29)" index="146411" value="1"/>
  <variable name="C(731,13)" index="146427" value="1"/>
  <variable name="C(731,3)" index="146428" value="2"/>
  <variable name="C(748,15)" index="146487" value="1"/>
  <variable name="C(748,20)" index="146488" value="2"/>
  <variable name="C(778,29)" index="146594" value="1"/>
  <variable name="C(778,15)" index="146595" value="2"/>
  <variable name="C(778,22)" index="146596" value="3"/>
  <variable name="C(781,13)" index="146605" value="1"/>
  <variable name="C(781,25)" index="146606" value="2"/>
  <variable name="C(791,14)" index="146642" value="1"/>
  <variable name="C(791,12)" index="146643" value="2"/>
  <variable name="C(791,19)" index="146644" value="3"/>
 </variables>
</CPLEXSolution>
